&BANDS
    prefix = 'graphene_0p00',
    outdir = './tmp/',
    filband = 'graphene_strain_0p00.bands.dat'
	lsym = .false
/
