&BANDS
    prefix = 'graphene_0p06_relax',
    outdir = './tmp/',
    filband = 'graphene_strain_0p06.bands.dat',
    lsym = .false.
/
