&BANDS
    prefix = 'graphene_0p18_relax',
    outdir = './tmp/',
    filband = 'graphene_strain_0p18.bands.dat',
    lsym = .false.
/
