&BANDS
    prefix = 'graphene_0p08_relax',
    outdir = './tmp/',
    filband = 'graphene_strain_0p08.bands.dat',
    lsym = .false.
/
