&CONTROL
    calculation = 'bands',
    prefix = 'graphene_0p04_2dscan',
    pseudo_dir = './pseudo/',
    outdir = './tmp/'
/
&SYSTEM
    ibrav = 0,
    nat = 2,
    ntyp = 1,
    ecutwfc = 80.0,
    ecutrho = 640.0,
    occupations = 'smearing',
    smearing = 'mv',
    degauss = 0.02,
    nbnd = 8
/
&ELECTRONS
    conv_thr = 1.0d-8
/
ATOMIC_SPECIES
C 12.011 C.pbe-n-kjpaw_psl.1.0.0.UPF
CELL_PARAMETERS angstrom
2.558400   0.000000   0.000000
-1.230000  2.130422   0.000000
0.000000   0.000000  15.000000
ATOMIC_POSITIONS crystal
C  -0.0012527510  -0.0014530200   0.0000000000
C   0.3345857510   0.6681200200   0.0000000000
K_POINTS crystal
441
  0.28333333  0.28333333  0.00000000  1.0
  0.28333333  0.28833333  0.00000000  1.0
  0.28333333  0.29333333  0.00000000  1.0
  0.28333333  0.29833333  0.00000000  1.0
  0.28333333  0.30333333  0.00000000  1.0
  0.28333333  0.30833333  0.00000000  1.0
  0.28333333  0.31333333  0.00000000  1.0
  0.28333333  0.31833333  0.00000000  1.0
  0.28333333  0.32333333  0.00000000  1.0
  0.28333333  0.32833333  0.00000000  1.0
  0.28333333  0.33333333  0.00000000  1.0
  0.28333333  0.33833333  0.00000000  1.0
  0.28333333  0.34333333  0.00000000  1.0
  0.28333333  0.34833333  0.00000000  1.0
  0.28333333  0.35333333  0.00000000  1.0
  0.28333333  0.35833333  0.00000000  1.0
  0.28333333  0.36333333  0.00000000  1.0
  0.28333333  0.36833333  0.00000000  1.0
  0.28333333  0.37333333  0.00000000  1.0
  0.28333333  0.37833333  0.00000000  1.0
  0.28333333  0.38333333  0.00000000  1.0
  0.28833333  0.28333333  0.00000000  1.0
  0.28833333  0.28833333  0.00000000  1.0
  0.28833333  0.29333333  0.00000000  1.0
  0.28833333  0.29833333  0.00000000  1.0
  0.28833333  0.30333333  0.00000000  1.0
  0.28833333  0.30833333  0.00000000  1.0
  0.28833333  0.31333333  0.00000000  1.0
  0.28833333  0.31833333  0.00000000  1.0
  0.28833333  0.32333333  0.00000000  1.0
  0.28833333  0.32833333  0.00000000  1.0
  0.28833333  0.33333333  0.00000000  1.0
  0.28833333  0.33833333  0.00000000  1.0
  0.28833333  0.34333333  0.00000000  1.0
  0.28833333  0.34833333  0.00000000  1.0
  0.28833333  0.35333333  0.00000000  1.0
  0.28833333  0.35833333  0.00000000  1.0
  0.28833333  0.36333333  0.00000000  1.0
  0.28833333  0.36833333  0.00000000  1.0
  0.28833333  0.37333333  0.00000000  1.0
  0.28833333  0.37833333  0.00000000  1.0
  0.28833333  0.38333333  0.00000000  1.0
  0.29333333  0.28333333  0.00000000  1.0
  0.29333333  0.28833333  0.00000000  1.0
  0.29333333  0.29333333  0.00000000  1.0
  0.29333333  0.29833333  0.00000000  1.0
  0.29333333  0.30333333  0.00000000  1.0
  0.29333333  0.30833333  0.00000000  1.0
  0.29333333  0.31333333  0.00000000  1.0
  0.29333333  0.31833333  0.00000000  1.0
  0.29333333  0.32333333  0.00000000  1.0
  0.29333333  0.32833333  0.00000000  1.0
  0.29333333  0.33333333  0.00000000  1.0
  0.29333333  0.33833333  0.00000000  1.0
  0.29333333  0.34333333  0.00000000  1.0
  0.29333333  0.34833333  0.00000000  1.0
  0.29333333  0.35333333  0.00000000  1.0
  0.29333333  0.35833333  0.00000000  1.0
  0.29333333  0.36333333  0.00000000  1.0
  0.29333333  0.36833333  0.00000000  1.0
  0.29333333  0.37333333  0.00000000  1.0
  0.29333333  0.37833333  0.00000000  1.0
  0.29333333  0.38333333  0.00000000  1.0
  0.29833333  0.28333333  0.00000000  1.0
  0.29833333  0.28833333  0.00000000  1.0
  0.29833333  0.29333333  0.00000000  1.0
  0.29833333  0.29833333  0.00000000  1.0
  0.29833333  0.30333333  0.00000000  1.0
  0.29833333  0.30833333  0.00000000  1.0
  0.29833333  0.31333333  0.00000000  1.0
  0.29833333  0.31833333  0.00000000  1.0
  0.29833333  0.32333333  0.00000000  1.0
  0.29833333  0.32833333  0.00000000  1.0
  0.29833333  0.33333333  0.00000000  1.0
  0.29833333  0.33833333  0.00000000  1.0
  0.29833333  0.34333333  0.00000000  1.0
  0.29833333  0.34833333  0.00000000  1.0
  0.29833333  0.35333333  0.00000000  1.0
  0.29833333  0.35833333  0.00000000  1.0
  0.29833333  0.36333333  0.00000000  1.0
  0.29833333  0.36833333  0.00000000  1.0
  0.29833333  0.37333333  0.00000000  1.0
  0.29833333  0.37833333  0.00000000  1.0
  0.29833333  0.38333333  0.00000000  1.0
  0.30333333  0.28333333  0.00000000  1.0
  0.30333333  0.28833333  0.00000000  1.0
  0.30333333  0.29333333  0.00000000  1.0
  0.30333333  0.29833333  0.00000000  1.0
  0.30333333  0.30333333  0.00000000  1.0
  0.30333333  0.30833333  0.00000000  1.0
  0.30333333  0.31333333  0.00000000  1.0
  0.30333333  0.31833333  0.00000000  1.0
  0.30333333  0.32333333  0.00000000  1.0
  0.30333333  0.32833333  0.00000000  1.0
  0.30333333  0.33333333  0.00000000  1.0
  0.30333333  0.33833333  0.00000000  1.0
  0.30333333  0.34333333  0.00000000  1.0
  0.30333333  0.34833333  0.00000000  1.0
  0.30333333  0.35333333  0.00000000  1.0
  0.30333333  0.35833333  0.00000000  1.0
  0.30333333  0.36333333  0.00000000  1.0
  0.30333333  0.36833333  0.00000000  1.0
  0.30333333  0.37333333  0.00000000  1.0
  0.30333333  0.37833333  0.00000000  1.0
  0.30333333  0.38333333  0.00000000  1.0
  0.30833333  0.28333333  0.00000000  1.0
  0.30833333  0.28833333  0.00000000  1.0
  0.30833333  0.29333333  0.00000000  1.0
  0.30833333  0.29833333  0.00000000  1.0
  0.30833333  0.30333333  0.00000000  1.0
  0.30833333  0.30833333  0.00000000  1.0
  0.30833333  0.31333333  0.00000000  1.0
  0.30833333  0.31833333  0.00000000  1.0
  0.30833333  0.32333333  0.00000000  1.0
  0.30833333  0.32833333  0.00000000  1.0
  0.30833333  0.33333333  0.00000000  1.0
  0.30833333  0.33833333  0.00000000  1.0
  0.30833333  0.34333333  0.00000000  1.0
  0.30833333  0.34833333  0.00000000  1.0
  0.30833333  0.35333333  0.00000000  1.0
  0.30833333  0.35833333  0.00000000  1.0
  0.30833333  0.36333333  0.00000000  1.0
  0.30833333  0.36833333  0.00000000  1.0
  0.30833333  0.37333333  0.00000000  1.0
  0.30833333  0.37833333  0.00000000  1.0
  0.30833333  0.38333333  0.00000000  1.0
  0.31333333  0.28333333  0.00000000  1.0
  0.31333333  0.28833333  0.00000000  1.0
  0.31333333  0.29333333  0.00000000  1.0
  0.31333333  0.29833333  0.00000000  1.0
  0.31333333  0.30333333  0.00000000  1.0
  0.31333333  0.30833333  0.00000000  1.0
  0.31333333  0.31333333  0.00000000  1.0
  0.31333333  0.31833333  0.00000000  1.0
  0.31333333  0.32333333  0.00000000  1.0
  0.31333333  0.32833333  0.00000000  1.0
  0.31333333  0.33333333  0.00000000  1.0
  0.31333333  0.33833333  0.00000000  1.0
  0.31333333  0.34333333  0.00000000  1.0
  0.31333333  0.34833333  0.00000000  1.0
  0.31333333  0.35333333  0.00000000  1.0
  0.31333333  0.35833333  0.00000000  1.0
  0.31333333  0.36333333  0.00000000  1.0
  0.31333333  0.36833333  0.00000000  1.0
  0.31333333  0.37333333  0.00000000  1.0
  0.31333333  0.37833333  0.00000000  1.0
  0.31333333  0.38333333  0.00000000  1.0
  0.31833333  0.28333333  0.00000000  1.0
  0.31833333  0.28833333  0.00000000  1.0
  0.31833333  0.29333333  0.00000000  1.0
  0.31833333  0.29833333  0.00000000  1.0
  0.31833333  0.30333333  0.00000000  1.0
  0.31833333  0.30833333  0.00000000  1.0
  0.31833333  0.31333333  0.00000000  1.0
  0.31833333  0.31833333  0.00000000  1.0
  0.31833333  0.32333333  0.00000000  1.0
  0.31833333  0.32833333  0.00000000  1.0
  0.31833333  0.33333333  0.00000000  1.0
  0.31833333  0.33833333  0.00000000  1.0
  0.31833333  0.34333333  0.00000000  1.0
  0.31833333  0.34833333  0.00000000  1.0
  0.31833333  0.35333333  0.00000000  1.0
  0.31833333  0.35833333  0.00000000  1.0
  0.31833333  0.36333333  0.00000000  1.0
  0.31833333  0.36833333  0.00000000  1.0
  0.31833333  0.37333333  0.00000000  1.0
  0.31833333  0.37833333  0.00000000  1.0
  0.31833333  0.38333333  0.00000000  1.0
  0.32333333  0.28333333  0.00000000  1.0
  0.32333333  0.28833333  0.00000000  1.0
  0.32333333  0.29333333  0.00000000  1.0
  0.32333333  0.29833333  0.00000000  1.0
  0.32333333  0.30333333  0.00000000  1.0
  0.32333333  0.30833333  0.00000000  1.0
  0.32333333  0.31333333  0.00000000  1.0
  0.32333333  0.31833333  0.00000000  1.0
  0.32333333  0.32333333  0.00000000  1.0
  0.32333333  0.32833333  0.00000000  1.0
  0.32333333  0.33333333  0.00000000  1.0
  0.32333333  0.33833333  0.00000000  1.0
  0.32333333  0.34333333  0.00000000  1.0
  0.32333333  0.34833333  0.00000000  1.0
  0.32333333  0.35333333  0.00000000  1.0
  0.32333333  0.35833333  0.00000000  1.0
  0.32333333  0.36333333  0.00000000  1.0
  0.32333333  0.36833333  0.00000000  1.0
  0.32333333  0.37333333  0.00000000  1.0
  0.32333333  0.37833333  0.00000000  1.0
  0.32333333  0.38333333  0.00000000  1.0
  0.32833333  0.28333333  0.00000000  1.0
  0.32833333  0.28833333  0.00000000  1.0
  0.32833333  0.29333333  0.00000000  1.0
  0.32833333  0.29833333  0.00000000  1.0
  0.32833333  0.30333333  0.00000000  1.0
  0.32833333  0.30833333  0.00000000  1.0
  0.32833333  0.31333333  0.00000000  1.0
  0.32833333  0.31833333  0.00000000  1.0
  0.32833333  0.32333333  0.00000000  1.0
  0.32833333  0.32833333  0.00000000  1.0
  0.32833333  0.33333333  0.00000000  1.0
  0.32833333  0.33833333  0.00000000  1.0
  0.32833333  0.34333333  0.00000000  1.0
  0.32833333  0.34833333  0.00000000  1.0
  0.32833333  0.35333333  0.00000000  1.0
  0.32833333  0.35833333  0.00000000  1.0
  0.32833333  0.36333333  0.00000000  1.0
  0.32833333  0.36833333  0.00000000  1.0
  0.32833333  0.37333333  0.00000000  1.0
  0.32833333  0.37833333  0.00000000  1.0
  0.32833333  0.38333333  0.00000000  1.0
  0.33333333  0.28333333  0.00000000  1.0
  0.33333333  0.28833333  0.00000000  1.0
  0.33333333  0.29333333  0.00000000  1.0
  0.33333333  0.29833333  0.00000000  1.0
  0.33333333  0.30333333  0.00000000  1.0
  0.33333333  0.30833333  0.00000000  1.0
  0.33333333  0.31333333  0.00000000  1.0
  0.33333333  0.31833333  0.00000000  1.0
  0.33333333  0.32333333  0.00000000  1.0
  0.33333333  0.32833333  0.00000000  1.0
  0.33333333  0.33333333  0.00000000  1.0
  0.33333333  0.33833333  0.00000000  1.0
  0.33333333  0.34333333  0.00000000  1.0
  0.33333333  0.34833333  0.00000000  1.0
  0.33333333  0.35333333  0.00000000  1.0
  0.33333333  0.35833333  0.00000000  1.0
  0.33333333  0.36333333  0.00000000  1.0
  0.33333333  0.36833333  0.00000000  1.0
  0.33333333  0.37333333  0.00000000  1.0
  0.33333333  0.37833333  0.00000000  1.0
  0.33333333  0.38333333  0.00000000  1.0
  0.33833333  0.28333333  0.00000000  1.0
  0.33833333  0.28833333  0.00000000  1.0
  0.33833333  0.29333333  0.00000000  1.0
  0.33833333  0.29833333  0.00000000  1.0
  0.33833333  0.30333333  0.00000000  1.0
  0.33833333  0.30833333  0.00000000  1.0
  0.33833333  0.31333333  0.00000000  1.0
  0.33833333  0.31833333  0.00000000  1.0
  0.33833333  0.32333333  0.00000000  1.0
  0.33833333  0.32833333  0.00000000  1.0
  0.33833333  0.33333333  0.00000000  1.0
  0.33833333  0.33833333  0.00000000  1.0
  0.33833333  0.34333333  0.00000000  1.0
  0.33833333  0.34833333  0.00000000  1.0
  0.33833333  0.35333333  0.00000000  1.0
  0.33833333  0.35833333  0.00000000  1.0
  0.33833333  0.36333333  0.00000000  1.0
  0.33833333  0.36833333  0.00000000  1.0
  0.33833333  0.37333333  0.00000000  1.0
  0.33833333  0.37833333  0.00000000  1.0
  0.33833333  0.38333333  0.00000000  1.0
  0.34333333  0.28333333  0.00000000  1.0
  0.34333333  0.28833333  0.00000000  1.0
  0.34333333  0.29333333  0.00000000  1.0
  0.34333333  0.29833333  0.00000000  1.0
  0.34333333  0.30333333  0.00000000  1.0
  0.34333333  0.30833333  0.00000000  1.0
  0.34333333  0.31333333  0.00000000  1.0
  0.34333333  0.31833333  0.00000000  1.0
  0.34333333  0.32333333  0.00000000  1.0
  0.34333333  0.32833333  0.00000000  1.0
  0.34333333  0.33333333  0.00000000  1.0
  0.34333333  0.33833333  0.00000000  1.0
  0.34333333  0.34333333  0.00000000  1.0
  0.34333333  0.34833333  0.00000000  1.0
  0.34333333  0.35333333  0.00000000  1.0
  0.34333333  0.35833333  0.00000000  1.0
  0.34333333  0.36333333  0.00000000  1.0
  0.34333333  0.36833333  0.00000000  1.0
  0.34333333  0.37333333  0.00000000  1.0
  0.34333333  0.37833333  0.00000000  1.0
  0.34333333  0.38333333  0.00000000  1.0
  0.34833333  0.28333333  0.00000000  1.0
  0.34833333  0.28833333  0.00000000  1.0
  0.34833333  0.29333333  0.00000000  1.0
  0.34833333  0.29833333  0.00000000  1.0
  0.34833333  0.30333333  0.00000000  1.0
  0.34833333  0.30833333  0.00000000  1.0
  0.34833333  0.31333333  0.00000000  1.0
  0.34833333  0.31833333  0.00000000  1.0
  0.34833333  0.32333333  0.00000000  1.0
  0.34833333  0.32833333  0.00000000  1.0
  0.34833333  0.33333333  0.00000000  1.0
  0.34833333  0.33833333  0.00000000  1.0
  0.34833333  0.34333333  0.00000000  1.0
  0.34833333  0.34833333  0.00000000  1.0
  0.34833333  0.35333333  0.00000000  1.0
  0.34833333  0.35833333  0.00000000  1.0
  0.34833333  0.36333333  0.00000000  1.0
  0.34833333  0.36833333  0.00000000  1.0
  0.34833333  0.37333333  0.00000000  1.0
  0.34833333  0.37833333  0.00000000  1.0
  0.34833333  0.38333333  0.00000000  1.0
  0.35333333  0.28333333  0.00000000  1.0
  0.35333333  0.28833333  0.00000000  1.0
  0.35333333  0.29333333  0.00000000  1.0
  0.35333333  0.29833333  0.00000000  1.0
  0.35333333  0.30333333  0.00000000  1.0
  0.35333333  0.30833333  0.00000000  1.0
  0.35333333  0.31333333  0.00000000  1.0
  0.35333333  0.31833333  0.00000000  1.0
  0.35333333  0.32333333  0.00000000  1.0
  0.35333333  0.32833333  0.00000000  1.0
  0.35333333  0.33333333  0.00000000  1.0
  0.35333333  0.33833333  0.00000000  1.0
  0.35333333  0.34333333  0.00000000  1.0
  0.35333333  0.34833333  0.00000000  1.0
  0.35333333  0.35333333  0.00000000  1.0
  0.35333333  0.35833333  0.00000000  1.0
  0.35333333  0.36333333  0.00000000  1.0
  0.35333333  0.36833333  0.00000000  1.0
  0.35333333  0.37333333  0.00000000  1.0
  0.35333333  0.37833333  0.00000000  1.0
  0.35333333  0.38333333  0.00000000  1.0
  0.35833333  0.28333333  0.00000000  1.0
  0.35833333  0.28833333  0.00000000  1.0
  0.35833333  0.29333333  0.00000000  1.0
  0.35833333  0.29833333  0.00000000  1.0
  0.35833333  0.30333333  0.00000000  1.0
  0.35833333  0.30833333  0.00000000  1.0
  0.35833333  0.31333333  0.00000000  1.0
  0.35833333  0.31833333  0.00000000  1.0
  0.35833333  0.32333333  0.00000000  1.0
  0.35833333  0.32833333  0.00000000  1.0
  0.35833333  0.33333333  0.00000000  1.0
  0.35833333  0.33833333  0.00000000  1.0
  0.35833333  0.34333333  0.00000000  1.0
  0.35833333  0.34833333  0.00000000  1.0
  0.35833333  0.35333333  0.00000000  1.0
  0.35833333  0.35833333  0.00000000  1.0
  0.35833333  0.36333333  0.00000000  1.0
  0.35833333  0.36833333  0.00000000  1.0
  0.35833333  0.37333333  0.00000000  1.0
  0.35833333  0.37833333  0.00000000  1.0
  0.35833333  0.38333333  0.00000000  1.0
  0.36333333  0.28333333  0.00000000  1.0
  0.36333333  0.28833333  0.00000000  1.0
  0.36333333  0.29333333  0.00000000  1.0
  0.36333333  0.29833333  0.00000000  1.0
  0.36333333  0.30333333  0.00000000  1.0
  0.36333333  0.30833333  0.00000000  1.0
  0.36333333  0.31333333  0.00000000  1.0
  0.36333333  0.31833333  0.00000000  1.0
  0.36333333  0.32333333  0.00000000  1.0
  0.36333333  0.32833333  0.00000000  1.0
  0.36333333  0.33333333  0.00000000  1.0
  0.36333333  0.33833333  0.00000000  1.0
  0.36333333  0.34333333  0.00000000  1.0
  0.36333333  0.34833333  0.00000000  1.0
  0.36333333  0.35333333  0.00000000  1.0
  0.36333333  0.35833333  0.00000000  1.0
  0.36333333  0.36333333  0.00000000  1.0
  0.36333333  0.36833333  0.00000000  1.0
  0.36333333  0.37333333  0.00000000  1.0
  0.36333333  0.37833333  0.00000000  1.0
  0.36333333  0.38333333  0.00000000  1.0
  0.36833333  0.28333333  0.00000000  1.0
  0.36833333  0.28833333  0.00000000  1.0
  0.36833333  0.29333333  0.00000000  1.0
  0.36833333  0.29833333  0.00000000  1.0
  0.36833333  0.30333333  0.00000000  1.0
  0.36833333  0.30833333  0.00000000  1.0
  0.36833333  0.31333333  0.00000000  1.0
  0.36833333  0.31833333  0.00000000  1.0
  0.36833333  0.32333333  0.00000000  1.0
  0.36833333  0.32833333  0.00000000  1.0
  0.36833333  0.33333333  0.00000000  1.0
  0.36833333  0.33833333  0.00000000  1.0
  0.36833333  0.34333333  0.00000000  1.0
  0.36833333  0.34833333  0.00000000  1.0
  0.36833333  0.35333333  0.00000000  1.0
  0.36833333  0.35833333  0.00000000  1.0
  0.36833333  0.36333333  0.00000000  1.0
  0.36833333  0.36833333  0.00000000  1.0
  0.36833333  0.37333333  0.00000000  1.0
  0.36833333  0.37833333  0.00000000  1.0
  0.36833333  0.38333333  0.00000000  1.0
  0.37333333  0.28333333  0.00000000  1.0
  0.37333333  0.28833333  0.00000000  1.0
  0.37333333  0.29333333  0.00000000  1.0
  0.37333333  0.29833333  0.00000000  1.0
  0.37333333  0.30333333  0.00000000  1.0
  0.37333333  0.30833333  0.00000000  1.0
  0.37333333  0.31333333  0.00000000  1.0
  0.37333333  0.31833333  0.00000000  1.0
  0.37333333  0.32333333  0.00000000  1.0
  0.37333333  0.32833333  0.00000000  1.0
  0.37333333  0.33333333  0.00000000  1.0
  0.37333333  0.33833333  0.00000000  1.0
  0.37333333  0.34333333  0.00000000  1.0
  0.37333333  0.34833333  0.00000000  1.0
  0.37333333  0.35333333  0.00000000  1.0
  0.37333333  0.35833333  0.00000000  1.0
  0.37333333  0.36333333  0.00000000  1.0
  0.37333333  0.36833333  0.00000000  1.0
  0.37333333  0.37333333  0.00000000  1.0
  0.37333333  0.37833333  0.00000000  1.0
  0.37333333  0.38333333  0.00000000  1.0
  0.37833333  0.28333333  0.00000000  1.0
  0.37833333  0.28833333  0.00000000  1.0
  0.37833333  0.29333333  0.00000000  1.0
  0.37833333  0.29833333  0.00000000  1.0
  0.37833333  0.30333333  0.00000000  1.0
  0.37833333  0.30833333  0.00000000  1.0
  0.37833333  0.31333333  0.00000000  1.0
  0.37833333  0.31833333  0.00000000  1.0
  0.37833333  0.32333333  0.00000000  1.0
  0.37833333  0.32833333  0.00000000  1.0
  0.37833333  0.33333333  0.00000000  1.0
  0.37833333  0.33833333  0.00000000  1.0
  0.37833333  0.34333333  0.00000000  1.0
  0.37833333  0.34833333  0.00000000  1.0
  0.37833333  0.35333333  0.00000000  1.0
  0.37833333  0.35833333  0.00000000  1.0
  0.37833333  0.36333333  0.00000000  1.0
  0.37833333  0.36833333  0.00000000  1.0
  0.37833333  0.37333333  0.00000000  1.0
  0.37833333  0.37833333  0.00000000  1.0
  0.37833333  0.38333333  0.00000000  1.0
  0.38333333  0.28333333  0.00000000  1.0
  0.38333333  0.28833333  0.00000000  1.0
  0.38333333  0.29333333  0.00000000  1.0
  0.38333333  0.29833333  0.00000000  1.0
  0.38333333  0.30333333  0.00000000  1.0
  0.38333333  0.30833333  0.00000000  1.0
  0.38333333  0.31333333  0.00000000  1.0
  0.38333333  0.31833333  0.00000000  1.0
  0.38333333  0.32333333  0.00000000  1.0
  0.38333333  0.32833333  0.00000000  1.0
  0.38333333  0.33333333  0.00000000  1.0
  0.38333333  0.33833333  0.00000000  1.0
  0.38333333  0.34333333  0.00000000  1.0
  0.38333333  0.34833333  0.00000000  1.0
  0.38333333  0.35333333  0.00000000  1.0
  0.38333333  0.35833333  0.00000000  1.0
  0.38333333  0.36333333  0.00000000  1.0
  0.38333333  0.36833333  0.00000000  1.0
  0.38333333  0.37333333  0.00000000  1.0
  0.38333333  0.37833333  0.00000000  1.0
  0.38333333  0.38333333  0.00000000  1.0
