&CONTROL
    calculation = 'bands',
    prefix = 'graphene_0p04_relax',
    pseudo_dir = './pseudo/',
    outdir = './tmp/'
/
&SYSTEM
    ibrav = 0,
    nat = 2,
    ntyp = 1,
    ecutwfc = 80.0,
    ecutrho = 640.0,
    occupations = 'smearing',
    smearing = 'mv',
    degauss = 0.02,
    nbnd = 8
/
&ELECTRONS
    conv_thr = 1.0d-8
/
ATOMIC_SPECIES
C 12.011 C.pbe-n-kjpaw_psl.1.0.0.UPF
CELL_PARAMETERS angstrom
2.558400   0.000000   0.000000
-1.230000  2.130422   0.000000
0.000000   0.000000  15.000000
ATOMIC_POSITIONS crystal
C  -0.0012527510  -0.0014530200   0.0000000000
C   0.3345857510   0.6681200200   0.0000000000
K_POINTS crystal_b
4
0.000000  0.000000  0.000000  40  ! Gamma
0.500000  0.000000  0.000000  40  ! M
0.333333  0.333333  0.000000  40  ! K
0.000000  0.000000  0.000000   0  ! Gamma
