&BANDS
    prefix = 'graphene_0p04_relax',
    outdir = './tmp/',
    filband = 'graphene_strain_0p04.bands.dat'
/
