&CONTROL
    calculation = 'scf',
    prefix = 'graphene_0p08',
    pseudo_dir = './pseudo/',
    outdir = './tmp/'
/
&SYSTEM
    ibrav = 0,
    nat = 2,
    ntyp = 1,
    ecutwfc = 80.0,
    ecutrho = 640.0,
    occupations = 'smearing',
    smearing = 'mv',
    degauss = 0.02
/
&ELECTRONS
    conv_thr = 1.0d-8
/
ATOMIC_SPECIES
C 12.011 C.pbe-n-kjpaw_psl.1.0.0.UPF
CELL_PARAMETERS angstrom
2.656800   0.000000   0.000000
-1.230000  2.130422   0.000000
0.000000   0.000000  15.000000
ATOMIC_POSITIONS crystal
C 0.000000  0.000000  0.000000
C 0.333333  0.666667  0.000000
K_POINTS automatic
24 24 1 0 0 0
