&BANDS
    prefix = 'graphene_0p04_2dscan',
    outdir = './tmp/',
    filband = 'graphene_strain_0p04_2dscan.bands.dat',
    lsym = .false.
/
