&BANDS
    prefix = 'graphene_0p16_relax',
    outdir = './tmp/',
    filband = 'graphene_strain_0p16.bands.dat',
    lsym = .false.
/
