&BANDS
    prefix = 'graphene_0p20_relax',
    outdir = './tmp/',
    filband = 'graphene_strain_0p20.bands.dat'
/
